134
100000
13574
49331
37623
22107
31133
23766
11715
24703
28584
14742
26411
38647
6292
7254
40055
40118
35174
46460
6474
26331
49543
12199
16645
9763
32678
32928
755
47588
47724
5281
37564
32160
18828
13744
3045
11938
13101
951
42830
3782
25051
26535
24368
6677
1232
38034
45203
24265
20272
4584
40032
15307
24741
34345
21024
5750
36552
15770
25711
20157
47198
13752
23348
36379
23702
3638
2116
39939
7082
41098
3442
3271
42143
1232
2866
18675
31079
26712
10353
2459
13774
32333
10709
18427
37147
31408
8913
39704
2303
12516
33637
39169
48977
550
41513
34534
25361
20105
26925
31243
4371
3901
41634
10346
673
32004
23543
6342
19279
38826
15253
49351
48360
43617
22801
1037
1782
7626
4609
7834
2970
9747
13398
12599
34446
33
10011
44083
30740
34860
41319
43557
17807
12358
